(set-info :smt-lib-version 2.6)
(set-logic UF)
(set-info :source |Benchmarks from the paper: "Extending Sledgehammer with SMT Solvers" by Jasmin Blanchette, Sascha Bohme, and Lawrence C. Paulson, CADE 2011.  Translated to SMT2 by Andrew Reynolds and Morgan Deters.|)
(set-info :category "industrial")
(set-info :status unsat)
(declare-sort S1 0)
(declare-sort S2 0)
(declare-sort S3 0)
(declare-sort S4 0)
(declare-sort S5 0)
(declare-sort S6 0)
(declare-sort S7 0)
(declare-sort S8 0)
(declare-sort S9 0)
(declare-sort S10 0)
(declare-sort S11 0)
(declare-sort S12 0)
(declare-sort S13 0)
(declare-sort S14 0)
(declare-sort S15 0)
(declare-sort S16 0)
(declare-sort S17 0)
(declare-sort S18 0)
(declare-sort S19 0)
(declare-sort S20 0)
(declare-sort S21 0)
(declare-sort S22 0)
(declare-sort S23 0)
(declare-sort S24 0)
(declare-sort S25 0)
(declare-sort S26 0)
(declare-sort S27 0)
(declare-sort S28 0)
(declare-sort S29 0)
(declare-sort S30 0)
(declare-sort S31 0)
(declare-sort S32 0)
(declare-sort S33 0)
(declare-sort S34 0)
(declare-sort S35 0)
(declare-sort S36 0)
(declare-sort S37 0)
(declare-sort S38 0)
(declare-sort S39 0)
(declare-sort S40 0)
(declare-sort S41 0)
(declare-sort S42 0)
(declare-sort S43 0)
(declare-fun f1 () S1)
(declare-fun f2 () S1)
(declare-fun f3 (S2 S1) S1)
(declare-fun f4 () S2)
(declare-fun f5 (S5 S4) S1)
(declare-fun f6 (S6 S3) S5)
(declare-fun f7 () S6)
(declare-fun f8 () S6)
(declare-fun f9 () S5)
(declare-fun f10 (S7 S8) S1)
(declare-fun f11 (S9 S7) S7)
(declare-fun f12 () S9)
(declare-fun f13 (S10 S8) S9)
(declare-fun f14 () S10)
(declare-fun f15 () S7)
(declare-fun f16 (S11 S8) S7)
(declare-fun f17 () S11)
(declare-fun f18 () S11)
(declare-fun f19 () S10)
(declare-fun f20 (S12 S7) S1)
(declare-fun f21 (S13 S8) S12)
(declare-fun f22 () S13)
(declare-fun f23 () S10)
(declare-fun f24 () S10)
(declare-fun f25 (S14 S7) S9)
(declare-fun f26 () S14)
(declare-fun f27 () S14)
(declare-fun f28 () S10)
(declare-fun f29 (S15 S4) S6)
(declare-fun f30 () S15)
(declare-fun f31 (S16 S3) S6)
(declare-fun f32 (S17 S6) S16)
(declare-fun f33 () S17)
(declare-fun f34 (S18 S6) S6)
(declare-fun f35 (S19 S1) S18)
(declare-fun f36 () S19)
(declare-fun f37 (S20 S8) S11)
(declare-fun f38 (S21 S1) S20)
(declare-fun f39 () S21)
(declare-fun f40 (S22 S1) S2)
(declare-fun f41 () S22)
(declare-fun f42 () S7)
(declare-fun f43 (S23 S7) S12)
(declare-fun f44 () S23)
(declare-fun f45 () S7)
(declare-fun f46 (S24 S6) S8)
(declare-fun f47 (S25 S26) S24)
(declare-fun f48 (S27 S6) S25)
(declare-fun f49 () S27)
(declare-fun f50 (S28 S26) S26)
(declare-fun f51 (S29 S5) S28)
(declare-fun f52 () S29)
(declare-fun f53 () S26)
(declare-fun f54 () S9)
(declare-fun f55 (S30 S7) S8)
(declare-fun f56 () S30)
(declare-fun f57 () S1)
(declare-fun f58 () S26)
(declare-fun f59 (S31 S26) S28)
(declare-fun f60 () S31)
(declare-fun f61 () S30)
(declare-fun f62 (S32 S5) S6)
(declare-fun f63 (S33 S6) S32)
(declare-fun f64 () S33)
(declare-fun f65 (S34 S5) S5)
(declare-fun f66 (S35 S2) S34)
(declare-fun f67 () S35)
(declare-fun f68 (S36 S5) S31)
(declare-fun f69 () S36)
(declare-fun f70 (S38 S37) S9)
(declare-fun f71 () S38)
(declare-fun f72 (S39 S37) S10)
(declare-fun f73 () S39)
(declare-fun f74 (S40 S30) S1)
(declare-fun f75 (S41 S37) S40)
(declare-fun f76 () S41)
(declare-fun f77 (S42 S37) S30)
(declare-fun f78 () S42)
(declare-fun f79 (S43 S8) S8)
(declare-fun f80 (S37 S8) S43)
(declare-fun f81 () S12)
(declare-fun f82 () S41)
(assert (not (= f1 f2)))
(assert (forall ((?v0 S1)) (= (= (f3 f4 ?v0) f1) (not (= ?v0 f1)))))
(assert (forall ((?v0 S3) (?v1 S4)) (= (= (f5 (f6 f7 ?v0) ?v1) f1) (and (= (f5 (f6 f8 ?v0) ?v1) f1) (not (= (f5 f9 ?v1) f1))))))
(assert (forall ((?v0 S7) (?v1 S8)) (= (= (f10 (f11 f12 ?v0) ?v1) f1) (= ?v0 (f11 (f13 f14 ?v1) f15)))))
(assert (forall ((?v0 S8) (?v1 S8)) (= (= (f10 (f16 f17 ?v0) ?v1) f1) (= ?v0 ?v1))))
(assert (forall ((?v0 S8) (?v1 S8)) (= (= (f10 (f16 f18 ?v0) ?v1) f1) (= ?v1 ?v0))))
(assert (forall ((?v0 S8) (?v1 S7) (?v2 S8)) (= (= (f10 (f11 (f13 f19 ?v0) ?v1) ?v2) f1) (or (= ?v2 ?v0) (= (f20 (f21 f22 ?v2) ?v1) f1)))))
(assert (forall ((?v0 S8) (?v1 S7) (?v2 S8)) (= (= (f10 (f11 (f13 f23 ?v0) ?v1) ?v2) f1) (and (= ?v0 ?v2) (= (f10 ?v1 ?v2) f1)))))
(assert (forall ((?v0 S8) (?v1 S7) (?v2 S8)) (= (= (f10 (f11 (f13 f24 ?v0) ?v1) ?v2) f1) (and (= ?v2 ?v0) (= (f10 ?v1 ?v2) f1)))))
(assert (forall ((?v0 S7) (?v1 S7) (?v2 S8)) (= (= (f10 (f11 (f25 f26 ?v0) ?v1) ?v2) f1) (or (= (f10 ?v0 ?v2) f1) (= (f10 ?v1 ?v2) f1)))))
(assert (forall ((?v0 S7) (?v1 S7) (?v2 S8)) (= (= (f10 (f11 (f25 f27 ?v0) ?v1) ?v2) f1) (and (= (f10 ?v0 ?v2) f1) (= (f10 ?v1 ?v2) f1)))))
(assert (forall ((?v0 S8) (?v1 S7) (?v2 S8)) (= (= (f10 (f11 (f13 f28 ?v0) ?v1) ?v2) f1) (=> (not (= ?v2 ?v0)) (= (f10 ?v1 ?v2) f1)))))
(assert (forall ((?v0 S4) (?v1 S3) (?v2 S4)) (= (= (f5 (f6 (f29 f30 ?v0) ?v1) ?v2) f1) (= ?v2 ?v0))))
(assert (forall ((?v0 S6) (?v1 S3) (?v2 S3)) (= (f6 (f31 (f32 f33 ?v0) ?v1) ?v2) (f6 ?v0 ?v1))))
(assert (forall ((?v0 S1) (?v1 S6) (?v2 S3) (?v3 S4)) (= (= (f5 (f6 (f34 (f35 f36 ?v0) ?v1) ?v2) ?v3) f1) (and (= (f5 (f6 ?v1 ?v2) ?v3) f1) (= ?v0 f1)))))
(assert (forall ((?v0 S1) (?v1 S8) (?v2 S8) (?v3 S8)) (let ((?v_0 (= ?v0 f1))) (= (= (f10 (f16 (f37 (f38 f39 ?v0) ?v1) ?v2) ?v3) f1) (and (=> (= ?v_0 true) (= ?v3 ?v1)) (=> (= ?v_0 false) (= ?v3 ?v2)))))))
(assert (forall ((?v0 S1) (?v1 S1)) (= (= (f3 (f40 f41 ?v0) ?v1) f1) (= ?v0 f1))))
(assert (forall ((?v0 S8)) (= (= (f10 f42 ?v0) f1) false)))
(assert (not (= (f20 (f43 f44 f45) (f11 (f13 f14 (f46 (f47 (f48 f49 f7) (f50 (f51 f52 f9) f53)) f8)) f15)) f1)))
(assert (forall ((?v0 S7)) (= (f20 (f43 f44 ?v0) f15) f1)))
(assert (forall ((?v0 S6) (?v1 S26) (?v2 S6) (?v3 S6) (?v4 S26) (?v5 S6)) (= (= (f46 (f47 (f48 f49 ?v0) ?v1) ?v2) (f46 (f47 (f48 f49 ?v3) ?v4) ?v5)) (and (= ?v0 ?v3) (and (= ?v1 ?v4) (= ?v2 ?v5))))))
(assert (forall ((?v0 S7) (?v1 S7) (?v2 S7)) (let ((?v_0 (f43 f44 ?v2))) (=> (= (f20 (f43 f44 ?v0) ?v1) f1) (=> (= (f20 ?v_0 ?v0) f1) (= (f20 ?v_0 ?v1) f1))))))
(assert (forall ((?v0 S7) (?v1 S8) (?v2 S7)) (let ((?v_0 (f43 f44 ?v0)) (?v_1 (f13 f14 ?v1))) (=> (= (f20 ?v_0 (f11 ?v_1 f15)) f1) (=> (= (f20 ?v_0 ?v2) f1) (= (f20 ?v_0 (f11 ?v_1 ?v2)) f1))))))
(assert (forall ((?v0 S1) (?v1 S7) (?v2 S6) (?v3 S26) (?v4 S6)) (let ((?v_0 (f43 f44 ?v1))) (=> (=> (= ?v0 f1) (= (f20 ?v_0 (f11 (f13 f14 (f46 (f47 (f48 f49 ?v2) ?v3) ?v4)) f15)) f1)) (= (f20 ?v_0 (f11 (f13 f14 (f46 (f47 (f48 f49 (f34 (f35 f36 ?v0) ?v2)) ?v3) ?v4)) f15)) f1)))))
(assert (forall ((?v0 S6) (?v1 S7) (?v2 S26) (?v3 S6)) (=> (forall ((?v4 S3) (?v5 S4)) (=> (= (f5 (f6 ?v0 ?v4) ?v5) f1) (= (f20 (f43 f44 ?v1) (f11 (f13 f14 (f46 (f47 (f48 f49 (f29 f30 ?v5)) ?v2) (f31 (f32 f33 ?v3) ?v4))) f15)) f1))) (= (f20 (f43 f44 ?v1) (f11 (f13 f14 (f46 (f47 (f48 f49 ?v0) ?v2) ?v3)) f15)) f1))))
(assert (forall ((?v0 S7) (?v1 S6) (?v2 S26) (?v3 S6) (?v4 S6)) (let ((?v_0 (f43 f44 ?v0)) (?v_1 (f47 (f48 f49 ?v1) ?v2))) (=> (= (f20 ?v_0 (f11 (f13 f14 (f46 ?v_1 ?v3)) f15)) f1) (=> (forall ((?v5 S3) (?v6 S4)) (=> (= (f5 (f6 ?v3 ?v5) ?v6) f1) (= (f5 (f6 ?v4 ?v5) ?v6) f1))) (= (f20 ?v_0 (f11 (f13 f14 (f46 ?v_1 ?v4)) f15)) f1))))))
(assert (forall ((?v0 S7) (?v1 S6) (?v2 S26) (?v3 S6) (?v4 S6)) (let ((?v_0 (f43 f44 ?v0))) (=> (= (f20 ?v_0 (f11 (f13 f14 (f46 (f47 (f48 f49 ?v1) ?v2) ?v3)) f15)) f1) (=> (forall ((?v5 S3) (?v6 S4)) (=> (= (f5 (f6 ?v4 ?v5) ?v6) f1) (= (f5 (f6 ?v1 ?v5) ?v6) f1))) (= (f20 ?v_0 (f11 (f13 f14 (f46 (f47 (f48 f49 ?v4) ?v2) ?v3)) f15)) f1))))))
(assert (forall ((?v0 S7) (?v1 S6) (?v2 S26) (?v3 S6) (?v4 S6) (?v5 S6)) (let ((?v_0 (f43 f44 ?v0))) (=> (= (f20 ?v_0 (f11 (f13 f14 (f46 (f47 (f48 f49 ?v1) ?v2) ?v3)) f15)) f1) (=> (forall ((?v6 S3) (?v7 S4)) (=> (= (f5 (f6 ?v4 ?v6) ?v7) f1) (forall ((?v8 S4)) (=> (forall ((?v9 S3)) (=> (= (f5 (f6 ?v1 ?v9) ?v7) f1) (= (f5 (f6 ?v3 ?v9) ?v8) f1))) (= (f5 (f6 ?v5 ?v6) ?v8) f1))))) (= (f20 ?v_0 (f11 (f13 f14 (f46 (f47 (f48 f49 ?v4) ?v2) ?v5)) f15)) f1))))))
(assert (forall ((?v0 S8) (?v1 S8) (?v2 S7)) (let ((?v_0 (f21 f22 ?v0))) (=> (= (f20 ?v_0 (f11 (f13 f14 ?v1) ?v2)) f1) (=> (=> (= ?v0 ?v1) false) (=> (=> (= (f20 ?v_0 ?v2) f1) false) false))))))
(assert (forall ((?v0 S8) (?v1 S7) (?v2 S8)) (let ((?v_0 (f21 f22 ?v0))) (=> (=> (not (= (f20 ?v_0 ?v1) f1)) (= ?v0 ?v2)) (= (f20 ?v_0 (f11 (f13 f14 ?v2) ?v1)) f1)))))
(assert (forall ((?v0 S8)) (=> (= (f20 (f21 f22 ?v0) f15) f1) false)))
(assert (forall ((?v0 S8)) (= (f11 f54 (f16 f17 ?v0)) (f11 (f13 f14 ?v0) f15))))
(assert (forall ((?v0 S8)) (= (f11 f54 (f16 f18 ?v0)) (f11 (f13 f14 ?v0) f15))))
(assert (forall ((?v0 S8) (?v1 S7)) (= (f11 f54 (f11 (f13 f23 ?v0) ?v1)) (ite (= (f10 ?v1 ?v0) f1) (f11 (f13 f14 ?v0) f15) f15))))
(assert (forall ((?v0 S8) (?v1 S7)) (= (f11 f54 (f11 (f13 f24 ?v0) ?v1)) (ite (= (f10 ?v1 ?v0) f1) (f11 (f13 f14 ?v0) f15) f15))))
(assert (forall ((?v0 S7) (?v1 S8)) (=> (= ?v0 f15) (not (= (f20 (f21 f22 ?v1) ?v0) f1)))))
(assert (forall ((?v0 S7)) (= (= (f11 f54 ?v0) f15) (forall ((?v1 S8)) (not (= (f10 ?v0 ?v1) f1))))))
(assert (forall ((?v0 S8)) (= (= (f20 (f21 f22 ?v0) f15) f1) false)))
(assert (forall ((?v0 S7)) (= (= f15 (f11 f54 ?v0)) (forall ((?v1 S8)) (not (= (f10 ?v0 ?v1) f1))))))
(assert (forall ((?v0 S7)) (= (forall ((?v1 S8)) (=> (= (f20 (f21 f22 ?v1) f15) f1) (= (f10 ?v0 ?v1) f1))) true)))
(assert (forall ((?v0 S7)) (= (exists ((?v1 S8)) (and (= (f20 (f21 f22 ?v1) f15) f1) (= (f10 ?v0 ?v1) f1))) false)))
(assert (forall ((?v0 S7)) (= (exists ((?v1 S8)) (= (f20 (f21 f22 ?v1) ?v0) f1)) (not (= ?v0 f15)))))
(assert (forall ((?v0 S7)) (= (forall ((?v1 S8)) (not (= (f20 (f21 f22 ?v1) ?v0) f1))) (= ?v0 f15))))
(assert (= f15 (f11 f54 f42)))
(assert (forall ((?v0 S8) (?v1 S7)) (=> (= (f20 (f21 f22 ?v0) ?v1) f1) (= (f11 (f13 f14 ?v0) ?v1) ?v1))))
(assert (forall ((?v0 S8) (?v1 S7) (?v2 S8)) (let ((?v_0 (f21 f22 ?v0))) (=> (= (f20 ?v_0 ?v1) f1) (= (f20 ?v_0 (f11 (f13 f14 ?v2) ?v1)) f1)))))
(assert (forall ((?v0 S8) (?v1 S7) (?v2 S7)) (let ((?v_0 (f21 f22 ?v0)) (?v_1 (f13 f14 ?v0))) (=> (not (= (f20 ?v_0 ?v1) f1)) (=> (not (= (f20 ?v_0 ?v2) f1)) (= (= (f11 ?v_1 ?v1) (f11 ?v_1 ?v2)) (= ?v1 ?v2)))))))
(assert (forall ((?v0 S8) (?v1 S7) (?v2 S8)) (= (= (f10 (f11 (f13 f14 ?v0) ?v1) ?v2) f1) (or (= ?v0 ?v2) (= (f10 ?v1 ?v2) f1)))))
(assert (forall ((?v0 S8) (?v1 S8) (?v2 S7)) (let ((?v_0 (f21 f22 ?v0))) (= (= (f20 ?v_0 (f11 (f13 f14 ?v1) ?v2)) f1) (or (= ?v0 ?v1) (= (f20 ?v_0 ?v2) f1))))))
(assert (forall ((?v0 S8) (?v1 S8) (?v2 S7)) (let ((?v_1 (f13 f14 ?v0)) (?v_0 (f13 f14 ?v1))) (= (f11 ?v_1 (f11 ?v_0 ?v2)) (f11 ?v_0 (f11 ?v_1 ?v2))))))
(assert (forall ((?v0 S8) (?v1 S7)) (let ((?v_0 (f13 f14 ?v0))) (let ((?v_1 (f11 ?v_0 ?v1))) (= (f11 ?v_0 ?v_1) ?v_1)))))
(assert (forall ((?v0 S8) (?v1 S7)) (= (f11 (f13 f14 ?v0) (f11 f54 ?v1)) (f11 f54 (f11 (f13 f28 ?v0) ?v1)))))
(assert (forall ((?v0 S8) (?v1 S7)) (= (f11 (f13 f14 ?v0) ?v1) (f11 f54 (f11 (f13 f19 ?v0) ?v1)))))
(assert (forall ((?v0 S8) (?v1 S7)) (= (f20 (f21 f22 ?v0) (f11 (f13 f14 ?v0) ?v1)) f1)))
(assert (forall ((?v0 S8) (?v1 S7)) (= (f11 (f13 f14 ?v0) ?v1) (f11 f54 (f11 (f13 f19 ?v0) ?v1)))))
(assert (forall ((?v0 S8) (?v1 S8)) (=> (= (f11 (f13 f14 ?v0) f15) (f11 (f13 f14 ?v1) f15)) (= ?v0 ?v1))))
(assert (forall ((?v0 S8) (?v1 S8)) (=> (= (f20 (f21 f22 ?v0) (f11 (f13 f14 ?v1) f15)) f1) (=> (=> (= ?v0 ?v1) false) false))))
(assert (forall ((?v0 S8) (?v1 S8) (?v2 S8) (?v3 S8)) (= (= (f11 (f13 f14 ?v0) (f11 (f13 f14 ?v1) f15)) (f11 (f13 f14 ?v2) (f11 (f13 f14 ?v3) f15))) (or (and (= ?v0 ?v2) (= ?v1 ?v3)) (and (= ?v0 ?v3) (= ?v1 ?v2))))))
(assert (forall ((?v0 S8) (?v1 S8)) (= (= (f20 (f21 f22 ?v0) (f11 (f13 f14 ?v1) f15)) f1) (= ?v0 ?v1))))
(assert (forall ((?v0 S8) (?v1 S7)) (not (= (f11 (f13 f14 ?v0) ?v1) f15))))
(assert (forall ((?v0 S8) (?v1 S7)) (not (= f15 (f11 (f13 f14 ?v0) ?v1)))))
(assert (forall ((?v0 S8)) (= (f55 f56 (f11 (f13 f14 ?v0) f15)) ?v0)))
(assert (forall ((?v0 S8)) (= (= (f10 f15 ?v0) f1) (= f57 f1))))
(assert (forall ((?v0 S8)) (= (= (f10 f15 ?v0) f1) (= f57 f1))))
(assert (forall ((?v0 S7) (?v1 S6)) (= (f20 (f43 f44 ?v0) (f11 (f13 f14 (f46 (f47 (f48 f49 ?v1) f58) ?v1)) f15)) f1)))
(assert (forall ((?v0 S7) (?v1 S6) (?v2 S26) (?v3 S6) (?v4 S26) (?v5 S6)) (let ((?v_0 (f43 f44 ?v0)) (?v_1 (f48 f49 ?v1))) (=> (= (f20 ?v_0 (f11 (f13 f14 (f46 (f47 ?v_1 ?v2) ?v3)) f15)) f1) (=> (= (f20 ?v_0 (f11 (f13 f14 (f46 (f47 (f48 f49 ?v3) ?v4) ?v5)) f15)) f1) (= (f20 ?v_0 (f11 (f13 f14 (f46 (f47 ?v_1 (f50 (f59 f60 ?v2) ?v4)) ?v5)) f15)) f1))))))
(assert (forall ((?v0 S8)) (=> (forall ((?v1 S6) (?v2 S26) (?v3 S6)) (=> (= ?v0 (f46 (f47 (f48 f49 ?v1) ?v2) ?v3)) false)) false)))
(assert (forall ((?v0 S8) (?v1 S7)) (=> (= (f20 (f21 f22 ?v0) ?v1) f1) (=> (forall ((?v2 S7)) (=> (= ?v1 (f11 (f13 f14 ?v0) ?v2)) (=> (not (= (f20 (f21 f22 ?v0) ?v2) f1)) false))) false))))
(assert (forall ((?v0 S8) (?v1 S7)) (=> (= (f20 (f21 f22 ?v0) ?v1) f1) (exists ((?v2 S7)) (and (= ?v1 (f11 (f13 f14 ?v0) ?v2)) (not (= (f20 (f21 f22 ?v0) ?v2) f1)))))))
(assert (forall ((?v0 S7)) (=> (forall ((?v1 S8)) (=> (= (f20 (f21 f22 ?v1) ?v0) f1) false)) (= ?v0 f15))))
(assert (forall ((?v0 S26) (?v1 S26)) (not (= (f50 (f59 f60 ?v0) ?v1) f58))))
(assert (forall ((?v0 S26) (?v1 S26)) (not (= f58 (f50 (f59 f60 ?v0) ?v1)))))
(assert (forall ((?v0 S5) (?v1 S26)) (not (= f58 (f50 (f51 f52 ?v0) ?v1)))))
(assert (forall ((?v0 S5) (?v1 S26)) (not (= (f50 (f51 f52 ?v0) ?v1) f58))))
(assert (forall ((?v0 S26) (?v1 S26) (?v2 S5) (?v3 S26)) (not (= (f50 (f59 f60 ?v0) ?v1) (f50 (f51 f52 ?v2) ?v3)))))
(assert (forall ((?v0 S5) (?v1 S26) (?v2 S26) (?v3 S26)) (not (= (f50 (f51 f52 ?v0) ?v1) (f50 (f59 f60 ?v2) ?v3)))))
(assert (forall ((?v0 S7)) (= (f55 f56 ?v0) (f55 f61 (f11 f12 ?v0)))))
(assert (forall ((?v0 S5) (?v1 S26) (?v2 S5) (?v3 S26)) (= (= (f50 (f51 f52 ?v0) ?v1) (f50 (f51 f52 ?v2) ?v3)) (and (= ?v0 ?v2) (= ?v1 ?v3)))))
(assert (forall ((?v0 S26) (?v1 S26) (?v2 S26) (?v3 S26)) (= (= (f50 (f59 f60 ?v0) ?v1) (f50 (f59 f60 ?v2) ?v3)) (and (= ?v0 ?v2) (= ?v1 ?v3)))))
(assert (forall ((?v0 S8)) (= (f55 f61 (f16 f17 ?v0)) ?v0)))
(assert (forall ((?v0 S8)) (= (f55 f61 (f16 f18 ?v0)) ?v0)))
(assert (forall ((?v0 S1) (?v1 S8) (?v2 S8)) (= (ite (= ?v0 f1) ?v1 ?v2) (f55 f61 (f16 (f37 (f38 f39 ?v0) ?v1) ?v2)))))
(assert (forall ((?v0 S6) (?v1 S7) (?v2 S26) (?v3 S6)) (=> (forall ((?v4 S3) (?v5 S4)) (=> (= (f5 (f6 ?v0 ?v4) ?v5) f1) (exists ((?v6 S6) (?v7 S6)) (and (= (f20 (f43 f44 ?v1) (f11 (f13 f14 (f46 (f47 (f48 f49 ?v6) ?v2) ?v7)) f15)) f1) (forall ((?v8 S4)) (=> (forall ((?v9 S3)) (=> (= (f5 (f6 ?v6 ?v9) ?v5) f1) (= (f5 (f6 ?v7 ?v9) ?v8) f1))) (= (f5 (f6 ?v3 ?v4) ?v8) f1))))))) (= (f20 (f43 f44 ?v1) (f11 (f13 f14 (f46 (f47 (f48 f49 ?v0) ?v2) ?v3)) f15)) f1))))
(assert (forall ((?v0 S7) (?v1 S6) (?v2 S5) (?v3 S26)) (let ((?v_0 (f43 f44 ?v0)) (?v_1 (f63 f64 ?v1))) (=> (= (f20 ?v_0 (f11 (f13 f14 (f46 (f47 (f48 f49 (f62 ?v_1 ?v2)) ?v3) ?v1)) f15)) f1) (= (f20 ?v_0 (f11 (f13 f14 (f46 (f47 (f48 f49 ?v1) (f50 (f51 f52 ?v2) ?v3)) (f62 ?v_1 (f65 (f66 f67 f4) ?v2)))) f15)) f1)))))
(assert (forall ((?v0 S7) (?v1 S8)) (=> (= (f10 ?v0 ?v1) f1) (=> (forall ((?v2 S8)) (=> (= (f10 ?v0 ?v2) f1) (= ?v2 ?v1))) (= (f55 f61 ?v0) ?v1)))))
(assert (forall ((?v0 S7)) (= (not (= ?v0 f15)) (exists ((?v1 S8) (?v2 S7)) (and (= ?v0 (f11 (f13 f14 ?v1) ?v2)) (not (= (f20 (f21 f22 ?v1) ?v2) f1)))))))
(assert (forall ((?v0 S6) (?v1 S5) (?v2 S3) (?v3 S4)) (= (= (f5 (f6 (f62 (f63 f64 ?v0) ?v1) ?v2) ?v3) f1) (and (= (f5 (f6 ?v0 ?v2) ?v3) f1) (= (f5 ?v1 ?v3) f1)))))
(assert (forall ((?v0 S7) (?v1 S6) (?v2 S5) (?v3 S26) (?v4 S6) (?v5 S26)) (let ((?v_0 (f43 f44 ?v0)) (?v_1 (f63 f64 ?v1))) (=> (= (f20 ?v_0 (f11 (f13 f14 (f46 (f47 (f48 f49 (f62 ?v_1 ?v2)) ?v3) ?v4)) f15)) f1) (=> (= (f20 ?v_0 (f11 (f13 f14 (f46 (f47 (f48 f49 (f62 ?v_1 (f65 (f66 f67 f4) ?v2))) ?v5) ?v4)) f15)) f1) (= (f20 ?v_0 (f11 (f13 f14 (f46 (f47 (f48 f49 ?v1) (f50 (f59 (f68 f69 ?v2) ?v3) ?v5)) ?v4)) f15)) f1))))))
(assert (forall ((?v0 S7) (?v1 S8)) (=> (= (f10 ?v0 ?v1) f1) (=> (forall ((?v2 S8)) (=> (= (f10 ?v0 ?v2) f1) (= ?v2 ?v1))) (= (f10 ?v0 (f55 f61 ?v0)) f1)))))
(assert (forall ((?v0 S7) (?v1 S8)) (=> (exists ((?v2 S8)) (and (= (f10 ?v0 ?v2) f1) (forall ((?v3 S8)) (=> (= (f10 ?v0 ?v3) f1) (= ?v3 ?v2))))) (=> (= (f10 ?v0 ?v1) f1) (= (f55 f61 ?v0) ?v1)))))
(assert (forall ((?v0 S7)) (=> (exists ((?v1 S8)) (and (= (f10 ?v0 ?v1) f1) (forall ((?v2 S8)) (=> (= (f10 ?v0 ?v2) f1) (= ?v2 ?v1))))) (= (f10 ?v0 (f55 f61 ?v0)) f1))))
(assert (forall ((?v0 S1) (?v1 S5) (?v2 S4)) (= (= (f5 (f65 (f66 f67 (f40 f41 ?v0)) ?v1) ?v2) f1) (= ?v0 f1))))
(assert (forall ((?v0 S8) (?v1 S7)) (= (= (f20 (f21 f22 ?v0) ?v1) f1) (= (f10 ?v1 ?v0) f1))))
(assert (forall ((?v0 S7)) (= (f11 f54 ?v0) ?v0)))
(assert (forall ((?v0 S37) (?v1 S8) (?v2 S8)) (= (= (f10 (f11 (f70 f71 ?v0) (f11 (f13 f14 ?v1) f15)) ?v2) f1) (= ?v1 ?v2))))
(assert (forall ((?v0 S5) (?v1 S26) (?v2 S26) (?v3 S5) (?v4 S26) (?v5 S26)) (= (= (f50 (f59 (f68 f69 ?v0) ?v1) ?v2) (f50 (f59 (f68 f69 ?v3) ?v4) ?v5)) (and (= ?v0 ?v3) (and (= ?v1 ?v4) (= ?v2 ?v5))))))
(assert (forall ((?v0 S5) (?v1 S26) (?v2 S26) (?v3 S5) (?v4 S26)) (not (= (f50 (f59 (f68 f69 ?v0) ?v1) ?v2) (f50 (f51 f52 ?v3) ?v4)))))
(assert (forall ((?v0 S5) (?v1 S26) (?v2 S5) (?v3 S26) (?v4 S26)) (not (= (f50 (f51 f52 ?v0) ?v1) (f50 (f59 (f68 f69 ?v2) ?v3) ?v4)))))
(assert (forall ((?v0 S26) (?v1 S26) (?v2 S5) (?v3 S26) (?v4 S26)) (not (= (f50 (f59 f60 ?v0) ?v1) (f50 (f59 (f68 f69 ?v2) ?v3) ?v4)))))
(assert (forall ((?v0 S5) (?v1 S26) (?v2 S26) (?v3 S26) (?v4 S26)) (not (= (f50 (f59 (f68 f69 ?v0) ?v1) ?v2) (f50 (f59 f60 ?v3) ?v4)))))
(assert (forall ((?v0 S5) (?v1 S26) (?v2 S26)) (not (= f58 (f50 (f59 (f68 f69 ?v0) ?v1) ?v2)))))
(assert (forall ((?v0 S5) (?v1 S26) (?v2 S26)) (not (= (f50 (f59 (f68 f69 ?v0) ?v1) ?v2) f58))))
(assert (forall ((?v0 S37) (?v1 S7) (?v2 S8)) (=> (= (f10 (f11 (f70 f71 ?v0) ?v1) ?v2) f1) (not (= ?v1 f15)))))
(assert (forall ((?v0 S37) (?v1 S8)) (=> (= (f10 (f11 (f70 f71 ?v0) f15) ?v1) f1) false)))
(assert (forall ((?v0 S2) (?v1 S5) (?v2 S5) (?v3 S4)) (=> (= (f65 (f66 f67 ?v0) ?v1) ?v2) (= (= (f3 ?v0 (f5 ?v1 ?v3)) f1) (= (f5 ?v2 ?v3) f1)))))
(assert (forall ((?v0 S37) (?v1 S8) (?v2 S7) (?v3 S8)) (=> (= (f10 (f11 (f13 (f72 f73 ?v0) ?v1) ?v2) ?v3) f1) (=> (not (= (f20 (f21 f22 ?v1) ?v2) f1)) (= (f10 (f11 (f70 f71 ?v0) (f11 (f13 f14 ?v1) ?v2)) ?v3) f1)))))
(assert (forall ((?v0 S37) (?v1 S30) (?v2 S8)) (=> (= (f74 (f75 f76 ?v0) ?v1) f1) (= (f55 ?v1 (f11 (f13 f14 ?v2) f15)) ?v2))))
(assert (forall ((?v0 S37) (?v1 S7)) (= (f55 (f77 f78 ?v0) ?v1) (f55 f61 (f11 (f70 f71 ?v0) ?v1)))))
(assert (forall ((?v0 S2) (?v1 S5) (?v2 S4)) (= (= (f5 (f65 (f66 f67 ?v0) ?v1) ?v2) f1) (= (f3 ?v0 (f5 ?v1 ?v2)) f1))))
(assert (forall ((?v0 S2) (?v1 S5) (?v2 S4)) (= (= (f5 (f65 (f66 f67 ?v0) ?v1) ?v2) f1) (= (f3 ?v0 (f5 ?v1 ?v2)) f1))))
(assert (forall ((?v0 S37) (?v1 S8) (?v2 S8)) (=> (= (f10 (f11 (f13 (f72 f73 ?v0) ?v1) f15) ?v2) f1) (=> (=> (= ?v2 ?v1) false) false))))
(assert (forall ((?v0 S37) (?v1 S8)) (= (f10 (f11 (f13 (f72 f73 ?v0) ?v1) f15) ?v1) f1)))
(assert (forall ((?v0 S8) (?v1 S7) (?v2 S37) (?v3 S8) (?v4 S8)) (let ((?v_0 (f13 (f72 f73 ?v2) ?v3))) (=> (not (= (f20 (f21 f22 ?v0) ?v1) f1)) (=> (= (f10 (f11 ?v_0 ?v1) ?v4) f1) (= (f10 (f11 ?v_0 (f11 (f13 f14 ?v0) ?v1)) (f79 (f80 ?v2 ?v0) ?v4)) f1))))))
(assert (forall ((?v0 S37) (?v1 S8)) (= (f55 (f77 f78 ?v0) (f11 (f13 f14 ?v1) f15)) ?v1)))
(assert (forall ((?v0 S30) (?v1 S37) (?v2 S8)) (=> (= ?v0 (f77 f78 ?v1)) (= (f55 ?v0 (f11 (f13 f14 ?v2) f15)) ?v2))))
(assert (forall ((?v0 S37) (?v1 S8) (?v2 S7) (?v3 S8)) (=> (= (f10 (f11 (f70 f71 ?v0) (f11 (f13 f14 ?v1) ?v2)) ?v3) f1) (=> (forall ((?v4 S8) (?v5 S7)) (=> (= (f11 (f13 f14 ?v1) ?v2) (f11 (f13 f14 ?v4) ?v5)) (=> (= (f10 (f11 (f13 (f72 f73 ?v0) ?v4) ?v5) ?v3) f1) (=> (not (= (f20 (f21 f22 ?v4) ?v5) f1)) false)))) false))))
(assert (forall ((?v0 S37) (?v1 S7) (?v2 S8)) (= (= (f10 (f11 (f70 f71 ?v0) ?v1) ?v2) f1) (exists ((?v3 S8) (?v4 S7) (?v5 S8)) (and (= ?v1 (f11 (f13 f14 ?v3) ?v4)) (and (= ?v2 ?v5) (and (= (f10 (f11 (f13 (f72 f73 ?v0) ?v3) ?v4) ?v5) f1) (not (= (f20 (f21 f22 ?v3) ?v4) f1)))))))))
(assert (forall ((?v0 S37) (?v1 S8) (?v2 S7) (?v3 S8)) (= (= (f10 (f11 (f13 (f72 f73 ?v0) ?v1) ?v2) ?v3) f1) (or (and (= ?v2 f15) (= ?v3 ?v1)) (exists ((?v4 S8) (?v5 S7) (?v6 S8)) (and (= ?v2 (f11 (f13 f14 ?v4) ?v5)) (and (= ?v3 (f79 (f80 ?v0 ?v4) ?v6)) (and (not (= (f20 (f21 f22 ?v4) ?v5) f1)) (= (f10 (f11 (f13 (f72 f73 ?v0) ?v1) ?v5) ?v6) f1)))))))))
(assert (forall ((?v0 S37) (?v1 S30) (?v2 S7) (?v3 S8)) (=> (= (f74 (f75 f76 ?v0) ?v1) f1) (=> (= (f20 f81 ?v2) f1) (=> (not (= (f20 (f21 f22 ?v3) ?v2) f1)) (=> (not (= ?v2 f15)) (= (f55 ?v1 (f11 (f13 f14 ?v3) ?v2)) (f79 (f80 ?v0 ?v3) (f55 ?v1 ?v2)))))))))
(assert (forall ((?v0 S7) (?v1 S7)) (=> (or (= (f20 f81 (f11 f54 ?v0)) f1) (= (f20 f81 (f11 f54 ?v1)) f1)) (= (f20 f81 (f11 f54 (f11 (f25 f27 ?v0) ?v1))) f1))))
(assert (= (f20 f81 f15) f1))
(assert (forall ((?v0 S7) (?v1 S8)) (=> (= (f20 f81 ?v0) f1) (= (f20 f81 (f11 (f13 f14 ?v1) ?v0)) f1))))
(assert (forall ((?v0 S7) (?v1 S7)) (= (= (f20 f81 (f11 f54 (f11 (f25 f26 ?v0) ?v1))) f1) (and (= (f20 f81 (f11 f54 ?v0)) f1) (= (f20 f81 (f11 f54 ?v1)) f1)))))
(assert (forall ((?v0 S8) (?v1 S7)) (= (= (f20 f81 (f11 (f13 f14 ?v0) ?v1)) f1) (= (f20 f81 ?v1) f1))))
(assert (forall ((?v0 S37) (?v1 S30) (?v2 S7)) (=> (= (f74 (f75 f76 ?v0) ?v1) f1) (=> (= (f20 f81 ?v2) f1) (= (f55 ?v1 ?v2) (f55 (f77 f78 ?v0) ?v2))))))
(assert (forall ((?v0 S37) (?v1 S30) (?v2 S7)) (=> (= (f74 (f75 f76 ?v0) ?v1) f1) (=> (= (f20 f81 ?v2) f1) (=> (not (= ?v2 f15)) (=> (forall ((?v3 S8) (?v4 S8)) (= (f20 (f21 f22 (f79 (f80 ?v0 ?v3) ?v4)) (f11 (f13 f14 ?v3) (f11 (f13 f14 ?v4) f15))) f1)) (= (f20 (f21 f22 (f55 ?v1 ?v2)) ?v2) f1)))))))
(assert (forall ((?v0 S7) (?v1 S37)) (=> (= (f20 f81 ?v0) f1) (=> (not (= ?v0 f15)) (exists ((?v2 S8)) (= (f10 (f11 (f70 f71 ?v1) ?v0) ?v2) f1))))))
(assert (forall ((?v0 S7) (?v1 S12)) (=> (= (f20 f81 ?v0) f1) (=> (= (f20 ?v1 f15) f1) (=> (forall ((?v2 S8) (?v3 S7)) (=> (= (f20 f81 ?v3) f1) (=> (not (= (f20 (f21 f22 ?v2) ?v3) f1)) (=> (= (f20 ?v1 ?v3) f1) (= (f20 ?v1 (f11 (f13 f14 ?v2) ?v3)) f1))))) (= (f20 ?v1 ?v0) f1))))))
(assert (forall ((?v0 S7)) (= (= (f20 f81 ?v0) f1) (or (= ?v0 f15) (exists ((?v1 S7) (?v2 S8)) (and (= ?v0 (f11 (f13 f14 ?v2) ?v1)) (= (f20 f81 ?v1) f1)))))))
(assert (forall ((?v0 S7) (?v1 S37) (?v2 S8)) (=> (= (f20 f81 ?v0) f1) (exists ((?v3 S8)) (= (f10 (f11 (f13 (f72 f73 ?v1) ?v2) ?v0) ?v3) f1)))))
(assert (forall ((?v0 S37) (?v1 S30) (?v2 S7) (?v3 S8)) (=> (= (f74 (f75 f82 ?v0) ?v1) f1) (=> (= (f20 f81 ?v2) f1) (=> (not (= ?v2 f15)) (= (f55 ?v1 (f11 (f13 f14 ?v3) ?v2)) (f79 (f80 ?v0 ?v3) (f55 ?v1 ?v2))))))))
(assert (forall ((?v0 S7) (?v1 S12)) (=> (= (f20 f81 ?v0) f1) (=> (not (= ?v0 f15)) (=> (forall ((?v2 S8)) (= (f20 ?v1 (f11 (f13 f14 ?v2) f15)) f1)) (=> (forall ((?v2 S8) (?v3 S7)) (=> (= (f20 f81 ?v3) f1) (=> (not (= ?v3 f15)) (=> (not (= (f20 (f21 f22 ?v2) ?v3) f1)) (=> (= (f20 ?v1 ?v3) f1) (= (f20 ?v1 (f11 (f13 f14 ?v2) ?v3)) f1)))))) (= (f20 ?v1 ?v0) f1)))))))
(check-sat)
(exit)
